output_file = "9-2-BC-80-1.60-513.csv";

n_days = 80;
n_shelf_types = 2;
n_crops = 2;

num_shelves = [
    6, 3
];


crop_shelf_type_compatible = [
    [1, 1],
[1, 1]
];

crop_growth_days = [15, 15];

n_configurations = 3;

crop_growth_day_config = [
    [1, 1, 1, 2, 2, 2, 2, 2, 2, 2, 2, 2, 2, 2, 2],
[1, 1, 1, 3, 3, 3, 3, 3, 3, 3, 3, 3, 3, 3, 3]
];

capacity = [
    [12, 12, 12],
[12, 12, 12]
];

demand = [
    [0, 0, 0, 0, 0, 0, 0, 0, 0, 0, 0, 0, 0, 0, 0, 0, 12, 0, 0, 16, 4, 0, 0, 0, 0, 0, 12, 4, 11, 0, 12, 22, 33, 0, 0, 11, 11, 0, 0, 22, 0, 0, 0, 9, 0, 0, 20, 17, 0, 0, 0, 8, 0, 0, 0, 0, 0, 0, 0, 17, 17, 20, 8, 0, 0, 0, 14, 0, 17, 4, 12, 0, 0, 0, 16, 0, 0, 0, 0, 9],
[0, 0, 0, 0, 0, 0, 0, 0, 0, 0, 0, 0, 0, 0, 0, 0, 17, 28, 35, 17, 8, 12, 0, 0, 30, 0, 0, 6, 0, 0, 16, 0, 0, 17, 0, 0, 11, 0, 19, 28, 19, 0, 14, 0, 0, 0, 30, 24, 0, 0, 6, 0, 0, 0, 22, 0, 11, 0, 12, 0, 0, 0, 0, 8, 0, 0, 0, 24, 0, 0, 0, 0, 11, 0, 27, 0, 9, 0, 0, 17]
];


missed_demand_penalty = [
    [0, 0, 0, 0, 0, 0, 0, 0, 0, 0, 0, 0, 0, 0, 0, 0, 1, 0, 0, 1, 1, 0, 0, 0, 0, 0, 1, 1, 1, 0, 1, 1, 1, 0, 0, 1, 1, 0, 0, 1, 0, 0, 0, 1, 0, 0, 1, 1, 0, 0, 0, 1, 0, 0, 0, 0, 0, 0, 0, 1, 1, 1, 1, 0, 0, 0, 1, 0, 1, 1, 1, 0, 0, 0, 1, 0, 0, 0, 0, 1],
[0, 0, 0, 0, 0, 0, 0, 0, 0, 0, 0, 0, 0, 0, 0, 0, 1, 1, 1, 1, 1, 1, 0, 0, 1, 0, 0, 1, 0, 0, 1, 0, 0, 1, 0, 0, 1, 0, 1, 1, 1, 0, 1, 0, 0, 0, 1, 1, 0, 0, 1, 0, 0, 0, 1, 0, 1, 0, 1, 0, 0, 0, 0, 1, 0, 0, 0, 1, 0, 0, 0, 0, 1, 0, 1, 0, 1, 0, 0, 1]
];